Grasp exp. instance_n_20_m_10_id_5.lp tipoLifted 0 szPool 5 nIteration 50 alpha 0.8 
Academic license - for non-commercial use only
Read LP format model from file ../input/instancesGenerated/instance_n_20_m_10_id_5.lp
Reading time = 0.00 seconds
: 10 rows, 20 columns, 106 nonzeros
Optimize a model with 10 rows, 20 columns and 106 nonzeros
Variable types: 0 continuous, 20 integer (20 binary)
Coefficient statistics:
  Matrix range     [1e+00, 1e+01]
  Objective range  [1e+00, 1e+01]
  Bounds range     [1e+00, 1e+00]
  RHS range        [2e+01, 4e+01]
Found heuristic solution: objective 45.0000000

Explored 0 nodes (0 simplex iterations) in 0.00 seconds
Thread count was 1 (of 8 available processors)

Solution count 1: 45 
No other solutions better than 0

Solution limit reached
Best objective 4.500000000000e+01, best bound -, gap -
C_1:	 1.00 x_2  = 0.958175 + 6.00 x_4  = 1.000000 + 6.00 x_5  = 0.894583 + 5.00 x_7  = 0.000000 + 6.00 x_11  = 0.537029 + 5.00 x_15  = 0.448893 + 10.00 x_17  = 0.000000 + 7.00 x_18  = 1.000000 + 5.00 x_20  = 0.041537 <= 25.00
C_2:	 8.00 x_1  = 0.000000 + 6.00 x_5  = 0.894583 + 9.00 x_8  = 0.000000 + 3.00 x_10  = 0.655087 + 2.00 x_11  = 0.537029 + 2.00 x_12  = 0.000000 + 1.00 x_13  = 1.000000 + 5.00 x_14  = 0.000000 + 1.00 x_15  = 0.448893 + 2.00 x_18  = 1.000000 + 8.00 x_20  = 0.041537 <= 23.00
C_3:	 1.00 x_2  = 0.958175 + 2.00 x_3  = 1.000000 + 2.00 x_4  = 1.000000 + 6.00 x_5  = 0.894583 + 5.00 x_8  = 0.000000 + 6.00 x_10  = 0.655087 + 5.00 x_12  = 0.000000 + 9.00 x_14  = 0.000000 + 9.00 x_15  = 0.448893 + 5.00 x_18  = 1.000000 + 4.00 x_19  = 0.925942 <= 27.00
C_4:	 6.00 x_1  = 0.000000 + 7.00 x_3  = 1.000000 + 7.00 x_4  = 1.000000 + 5.00 x_8  = 0.000000 + 4.00 x_11  = 0.537029 + 5.00 x_12  = 0.000000 + 6.00 x_14  = 0.000000 + 4.00 x_16  = 0.220305 + 10.00 x_19  = 0.925942 + 10.00 x_20  = 0.041537 <= 32.00
C_5:	 5.00 x_2  = 0.958175 + 3.00 x_3  = 1.000000 + 9.00 x_4  = 1.000000 + 6.00 x_5  = 0.894583 + 5.00 x_6  = 0.000000 + 2.00 x_8  = 0.000000 + 3.00 x_9  = 1.000000 + 10.00 x_10  = 0.655087 + 6.00 x_14  = 0.000000 + 9.00 x_17  = 0.000000 + 7.00 x_20  = 0.041537 <= 32.00
C_6:	 3.00 x_1  = 0.000000 + 10.00 x_2  = 0.958175 + 8.00 x_7  = 0.000000 + 2.00 x_9  = 1.000000 + 7.00 x_11  = 0.537029 + 4.00 x_16  = 0.220305 + 10.00 x_17  = 0.000000 + 9.00 x_18  = 1.000000 + 3.00 x_19  = 0.925942 <= 28.00
C_7:	 1.00 x_1  = 0.000000 + 8.00 x_2  = 0.958175 + 9.00 x_5  = 0.894583 + 10.00 x_6  = 0.000000 + 5.00 x_7  = 0.000000 + 8.00 x_9  = 1.000000 + 4.00 x_10  = 0.655087 + 3.00 x_13  = 1.000000 + 8.00 x_14  = 0.000000 + 9.00 x_16  = 0.220305 + 5.00 x_17  = 0.000000 + 5.00 x_18  = 1.000000 + 6.00 x_19  = 0.925942 + 3.00 x_20  = 0.041537 <= 42.00
C_8:	 8.00 x_1  = 0.000000 + 8.00 x_3  = 1.000000 + 4.00 x_6  = 0.000000 + 7.00 x_7  = 0.000000 + 2.00 x_9  = 1.000000 + 5.00 x_10  = 0.655087 + 10.00 x_11  = 0.537029 + 2.00 x_12  = 0.000000 + 10.00 x_13  = 1.000000 + 6.00 x_15  = 0.448893 + 3.00 x_16  = 0.220305 <= 32.00
C_9:	 1.00 x_2  = 0.958175 + 1.00 x_4  = 1.000000 + 5.00 x_5  = 0.894583 + 7.00 x_8  = 0.000000 + 4.00 x_10  = 0.655087 + 5.00 x_12  = 0.000000 + 2.00 x_13  = 1.000000 + 2.00 x_14  = 0.000000 + 2.00 x_15  = 0.448893 + 7.00 x_16  = 0.220305 + 6.00 x_18  = 1.000000 + 10.00 x_19  = 0.925942 + 6.00 x_20  = 0.041537 <= 29.00
C_10:	 4.00 x_1  = 0.000000 + 9.00 x_3  = 1.000000 + 5.00 x_8  = 0.000000 + 8.00 x_11  = 0.537029 + 1.00 x_13  = 1.000000 + 6.00 x_17  = 0.000000 + 4.00 x_19  = 0.925942 <= 18.00
Solution initial: 71.395330 
Number Constraints Used in Cover:10
GRASP Method!
Number cuts repeat: 0
value: 70.812588
Number Constraints Used in Cover:19
GRASP Method!
Number cuts repeat: 0
value: 70.812588
Number Constraints Used in Cover:27
GRASP Method!
Number cuts repeat: 0
value: 70.812588
Number Constraints Used in Cover:32
GRASP Method!
Number cuts repeat: 0
value: 70.812588
Number Constraints Used in Cover:38
GRASP Method!
Number cuts repeat: 0
value: 70.812588
Number Constraints Used in Cover:40
GRASP Method!
Number cuts repeat: 0
value: 70.812588
Number Constraints Used in Cover:45
GRASP Method!
Number cuts repeat: 0
value: 70.646982
Number Constraints Used in Cover:47
GRASP Method!
Number cuts repeat: 0
value: 70.646982
Number Constraints Used in Cover:50
GRASP Method!
Number cuts repeat: 0
value: 70.580469
Number Constraints Used in Cover:53
GRASP Method!
Number cuts repeat: 0
value: 70.238007
Number Constraints Used in Cover:58
GRASP Method!
Number cuts repeat: 0
value: 70.238007
Number Constraints Used in Cover:61
GRASP Method!
Number cuts repeat: 0
value: 70.238007
Number Constraints Used in Cover:71
GRASP Method!
Number cuts repeat: 0
value: 70.238007
Number Constraints Used in Cover:77
GRASP Method!
Number cuts repeat: 0
value: 70.238007
Number Constraints Used in Cover:83
GRASP Method!
Number cuts repeat: 0
value: 70.238007
Number Constraints Used in Cover:87
GRASP Method!
Number cuts repeat: 0
value: 70.238007
Number Constraints Used in Cover:89
GRASP Method!
Number cuts repeat: 0
value: 70.238007
Number Constraints Used in Cover:91
GRASP Method!
Number cuts repeat: 0
value: 70.238007
Number Constraints Used in Cover:95
GRASP Method!
Number cuts repeat: 0
value: 70.238007
Number Constraints Used in Cover:97
GRASP Method!
Number cuts repeat: 0
value: 70.238007
Number Constraints Used in Cover:100
GRASP Method!
Number cuts repeat: 0
value: 70.238007
Number Constraints Used in Cover:100
GRASP Method!
Number cuts repeat: 0
value: 70.238007
Number Constraints Used in Cover:104
GRASP Method!
Number cuts repeat: 0
value: 70.238007
Number Constraints Used in Cover:104
GRASP Method!
Number cuts repeat: 0
value: 70.084123
Number Constraints Used in Cover:106
GRASP Method!
Number cuts repeat: 0
value: 69.171076
Number Constraints Used in Cover:113
GRASP Method!
Number cuts repeat: 0
value: 69.171076
Number Constraints Used in Cover:118
GRASP Method!
Number cuts repeat: 0
value: 69.171076
Number Constraints Used in Cover:123
GRASP Method!
Number cuts repeat: 0
value: 69.171076
Number Constraints Used in Cover:126
GRASP Method!
Number cuts repeat: 0
value: 69.171076
Number Constraints Used in Cover:130
GRASP Method!
Number cuts repeat: 0
value: 69.171076
Number Constraints Used in Cover:132
GRASP Method!
Number cuts repeat: 0
value: 69.171076
Number Constraints Used in Cover:135
GRASP Method!
Number cuts repeat: 0
value: 69.171076
Number Constraints Used in Cover:139
GRASP Method!
Number cuts repeat: 0
value: 69.171076
Number Constraints Used in Cover:143
GRASP Method!
Number cuts repeat: 0
value: 69.171076
Number Constraints Used in Cover:145
GRASP Method!
Number cuts repeat: 0
value: 69.171076
Number Constraints Used in Cover:152
GRASP Method!
Number cuts repeat: 0
value: 69.171076
Number Constraints Used in Cover:159
GRASP Method!
Number cuts repeat: 0
value: 69.171076
Number Constraints Used in Cover:166
GRASP Method!
Number cuts repeat: 0
value: 69.171076
Number Constraints Used in Cover:176
GRASP Method!
Number cuts repeat: 0
value: 69.171076
Number Constraints Used in Cover:180
GRASP Method!
Number cuts repeat: 0
value: 69.171076
Number Constraints Used in Cover:186
GRASP Method!
Number cuts repeat: 0
value: 69.171076
Number Constraints Used in Cover:191
GRASP Method!
Number cuts repeat: 0
value: 69.171076
Number Constraints Used in Cover:193
GRASP Method!
Number cuts repeat: 0
value: 69.171076
Number Constraints Used in Cover:200
GRASP Method!
Number cuts repeat: 0
value: 69.171076
Number Constraints Used in Cover:203
GRASP Method!
Number cuts repeat: 0
value: 69.171076
Number Constraints Used in Cover:203
GRASP Method!
Number cuts repeat: 0
value: 69.171076
Number Constraints Used in Cover:204
GRASP Method!
Number cuts repeat: 0
value: 69.171076
Number Constraints Used in Cover:205
GRASP Method!
Number cuts repeat: 0
value: 69.171076
Number Constraints Used in Cover:212
GRASP Method!
Number cuts repeat: 0
value: 69.171076
Number Constraints Used in Cover:212
GRASP Method!
Number cuts repeat: 0
value: 69.171076
Number Constraints Used in Cover:213
GRASP Method!
Number cuts repeat: 0
value: 69.171076
Number Constraints Used in Cover:218
GRASP Method!
Number cuts repeat: 0
value: 69.171076
Number Constraints Used in Cover:219
GRASP Method!
Number cuts repeat: 0
value: 69.171076
Number Constraints Used in Cover:224
GRASP Method!
Number cuts repeat: 0
value: 69.171076
Number Constraints Used in Cover:234
GRASP Method!
Number cuts repeat: 0
value: 69.171076
Number Constraints Used in Cover:237
GRASP Method!
Number cuts repeat: 0
value: 69.171076
Number Constraints Used in Cover:241
GRASP Method!
Number cuts repeat: 0
value: 69.171076
Number Constraints Used in Cover:243
GRASP Method!
Number cuts repeat: 0
value: 69.171076
Number Constraints Used in Cover:244
GRASP Method!
Number cuts repeat: 0
value: 69.171076
Number Constraints Used in Cover:244
GRASP Method!
Number cuts repeat: 0
value: 69.171076
Number Constraints Used in Cover:246
GRASP Method!
Number cuts repeat: 0
value: 69.171076
Number Constraints Used in Cover:247
GRASP Method!
Number cuts repeat: 0
value: 69.171076
Number Constraints Used in Cover:249
GRASP Method!
Number cuts repeat: 0
value: 69.171076
Number Constraints Used in Cover:249
GRASP Method!
Number cuts repeat: 0
value: 69.171076
Number Constraints Used in Cover:251
GRASP Method!
Number cuts repeat: 0
value: 69.171076
Number Constraints Used in Cover:252
GRASP Method!
Number cuts repeat: 0
value: 69.171076
Number Constraints Used in Cover:252
GRASP Method!
Number cuts repeat: 0
value: 69.171076
Number Constraints Used in Cover:253
GRASP Method!
Number cuts repeat: 0
value: 69.171076
Number Constraints Used in Cover:253
GRASP Method!
Number cuts repeat: 0
value: 69.171076
Number Constraints Used in Cover:253
GRASP Method!
Number cuts repeat: 0
value: 69.171076
Number Constraints Used in Cover:259
GRASP Method!
Number cuts repeat: 0
value: 69.171076
Number Constraints Used in Cover:259
GRASP Method!
Number cuts repeat: 0
value: 69.171076
Number Constraints Used in Cover:259
GRASP Method!
Number cuts repeat: 0
value: 69.171076
Number Constraints Used in Cover:259
GRASP Method!
Number cuts repeat: 0
value: 69.171076
Number Constraints Used in Cover:262
GRASP Method!
Number cuts repeat: 0
value: 69.171076
Number Constraints Used in Cover:264
GRASP Method!
Number cuts repeat: 0
value: 69.171076
Number Constraints Used in Cover:264
GRASP Method!
Number cuts repeat: 0
value: 69.171076
Number Constraints Used in Cover:266
GRASP Method!
Number cuts repeat: 0
value: 69.171076
Number Constraints Used in Cover:271
GRASP Method!
Number cuts repeat: 0
value: 69.171076
Number Constraints Used in Cover:277
GRASP Method!
Number cuts repeat: 0
value: 69.171076
Number Constraints Used in Cover:284
GRASP Method!
Number cuts repeat: 0
value: 69.171076
Number Constraints Used in Cover:285
GRASP Method!
Number cuts repeat: 0
value: 69.171076
Number Constraints Used in Cover:286
GRASP Method!
Number cuts repeat: 0
value: 69.171076
Number Constraints Used in Cover:287
GRASP Method!
Number cuts repeat: 0
value: 69.171076
Number Constraints Used in Cover:288
GRASP Method!
Number cuts repeat: 0
value: 69.171076
Number Constraints Used in Cover:289
GRASP Method!
Number cuts repeat: 0
value: 69.171076
Number Constraints Used in Cover:291
GRASP Method!
Number cuts repeat: 0
value: 69.171076
Number Constraints Used in Cover:300
GRASP Method!
Number cuts repeat: 0
value: 69.171076
Number Constraints Used in Cover:301
GRASP Method!
Number cuts repeat: 0
value: 69.171076
Number Constraints Used in Cover:302
GRASP Method!
Number cuts repeat: 0
value: 69.171076
Number Constraints Used in Cover:304
GRASP Method!
Number cuts repeat: 0
value: 69.171076
Number Constraints Used in Cover:305
GRASP Method!
Number cuts repeat: 0
value: 69.171076
Number Constraints Used in Cover:306
GRASP Method!
Number cuts repeat: 0
value: 69.171076
Number Constraints Used in Cover:306
GRASP Method!
Number cuts repeat: 0
value: 69.171076
Number Constraints Used in Cover:308
GRASP Method!
Number cuts repeat: 0
value: 69.171076
Number Constraints Used in Cover:308
GRASP Method!
Number cuts repeat: 0
value: 69.171076
Number Constraints Used in Cover:310
GRASP Method!
Number cuts repeat: 0
value: 69.171076
Number Constraints Used in Cover:314
GRASP Method!
Number cuts repeat: 0
value: 69.171076
Number Constraints Used in Cover:314
GRASP Method!
Number cuts repeat: 0
value: 69.171076
Number Constraints Used in Cover:319
GRASP Method!
Number cuts repeat: 0
value: 69.171076
Number Constraints Used in Cover:322
GRASP Method!
Number cuts repeat: 0
value: 69.171076
Number Constraints Used in Cover:323
GRASP Method!
Number cuts repeat: 0
value: 69.171076
Number Constraints Used in Cover:326
GRASP Method!
Number cuts repeat: 0
value: 69.171076
Number Constraints Used in Cover:327
GRASP Method!
Number cuts repeat: 0
value: 69.171076
Number Constraints Used in Cover:329
GRASP Method!
Number cuts repeat: 0
value: 69.171076
Number Constraints Used in Cover:332
GRASP Method!
Number cuts repeat: 0
value: 69.171076
Number Constraints Used in Cover:332
GRASP Method!
Number cuts repeat: 0
value: 69.171076
Number Constraints Used in Cover:332
GRASP Method!
Number cuts repeat: 0
value: 69.171076
Number Constraints Used in Cover:333
GRASP Method!
Number cuts repeat: 0
value: 69.171076
Number Constraints Used in Cover:333
GRASP Method!
Number cuts repeat: 0
value: 69.171076
Number Constraints Used in Cover:334
GRASP Method!
Number cuts repeat: 0
value: 69.171076
Number Constraints Used in Cover:335
GRASP Method!
Number cuts repeat: 0
value: 69.171076
Number Constraints Used in Cover:336
GRASP Method!
Number cuts repeat: 0
value: 69.171076
Number Constraints Used in Cover:336
GRASP Method!
Number cuts repeat: 0
value: 69.171076
Number Constraints Used in Cover:339
GRASP Method!
Number cuts repeat: 0
value: 69.171076
Number Constraints Used in Cover:341
GRASP Method!
Number cuts repeat: 0
value: 69.171076
Number Constraints Used in Cover:341
GRASP Method!
Number cuts repeat: 0
value: 69.171076
Number Constraints Used in Cover:344
GRASP Method!
Number cuts repeat: 0
value: 69.171076
Number Constraints Used in Cover:344
GRASP Method!
Number cuts repeat: 0
value: 69.171076
Number Constraints Used in Cover:345
GRASP Method!
Number cuts repeat: 0
value: 69.171076
Number Constraints Used in Cover:347
GRASP Method!
Number cuts repeat: 0
value: 69.171076
Number Constraints Used in Cover:348
GRASP Method!
Number cuts repeat: 0
value: 69.171076
Number Constraints Used in Cover:350
GRASP Method!
Number cuts repeat: 0
value: 69.171076
Number Constraints Used in Cover:350
GRASP Method!
Number cuts repeat: 0
value: 69.171076
Number Constraints Used in Cover:350
GRASP Method!
Number cuts repeat: 0
value: 69.171076
Number Constraints Used in Cover:350
GRASP Method!
Number cuts repeat: 0
value: 69.171076
Number Constraints Used in Cover:351
GRASP Method!
Number cuts repeat: 0
value: 69.171076
Number Constraints Used in Cover:352
GRASP Method!
Number cuts repeat: 0
value: 69.171076
Number Constraints Used in Cover:356
GRASP Method!
Number cuts repeat: 0
value: 69.171076
Number Constraints Used in Cover:356
GRASP Method!
Number cuts repeat: 0
value: 69.171076
Number Constraints Used in Cover:358
GRASP Method!
Number cuts repeat: 0
value: 69.171076
Number Constraints Used in Cover:358
GRASP Method!
Number cuts repeat: 0
value: 69.171076
Number Constraints Used in Cover:358
GRASP Method!
Number cuts repeat: 0
value: 69.171076
Number Constraints Used in Cover:359
GRASP Method!
Number cuts repeat: 0
value: 69.171076
Number Constraints Used in Cover:359
GRASP Method!
Number cuts repeat: 0
value: 69.171076
Number Constraints Used in Cover:359
GRASP Method!
Number cuts repeat: 0
value: 69.171076
Number Constraints Used in Cover:359
GRASP Method!
Number cuts repeat: 0
value: 69.171076
Number Constraints Used in Cover:361
GRASP Method!
Number cuts repeat: 0
value: 69.171076
Number Constraints Used in Cover:361
GRASP Method!
Number cuts repeat: 0
value: 69.171076
Number Constraints Used in Cover:361
GRASP Method!
Number cuts repeat: 0
value: 69.171076
Number Constraints Used in Cover:361
GRASP Method!
Number cuts repeat: 0
value: 69.171076
Number Constraints Used in Cover:361
GRASP Method!
Number cuts repeat: 0
value: 69.171076
Number Constraints Used in Cover:361
GRASP Method!
Number cuts repeat: 0
value: 69.171076
Number Constraints Used in Cover:361
GRASP Method!
Number cuts repeat: 0
value: 69.171076
Number Constraints Used in Cover:361
GRASP Method!
Number cuts repeat: 0
value: 69.171076
Number Constraints Used in Cover:361
GRASP Method!
Number cuts repeat: 0
value: 69.171076
Number Constraints Used in Cover:362
GRASP Method!
Number cuts repeat: 0
value: 69.171076
Number Constraints Used in Cover:362
GRASP Method!
Number cuts repeat: 0
value: 69.171076
Number Constraints Used in Cover:362
GRASP Method!
Number cuts repeat: 0
value: 69.171076
Number Constraints Used in Cover:362
GRASP Method!
Number cuts repeat: 0
value: 69.171076
Number Constraints Used in Cover:362
GRASP Method!
Number cuts repeat: 0
value: 69.171076
Number Constraints Used in Cover:364
GRASP Method!
Number cuts repeat: 0
value: 69.171076
Number Constraints Used in Cover:364
GRASP Method!
Number cuts repeat: 0
value: 69.171076
Number Constraints Used in Cover:364
GRASP Method!
Number cuts repeat: 0
value: 69.171076
Number Constraints Used in Cover:364
GRASP Method!
Number cuts repeat: 0
value: 69.171076
Number Constraints Used in Cover:364
GRASP Method!
Number cuts repeat: 0
value: 69.171076
Number Constraints Used in Cover:368
GRASP Method!
Number cuts repeat: 0
value: 69.171076
Number Constraints Used in Cover:369
GRASP Method!
Number cuts repeat: 0
value: 69.171076
Number Constraints Used in Cover:370
GRASP Method!
Number cuts repeat: 0
value: 69.171076
Number Constraints Used in Cover:370
GRASP Method!
Number cuts repeat: 0
value: 69.171076
Number Constraints Used in Cover:373
GRASP Method!
Number cuts repeat: 0
value: 69.171076
Number Constraints Used in Cover:373
GRASP Method!
Number cuts repeat: 0
value: 69.171076
Number Constraints Used in Cover:374
GRASP Method!
Number cuts repeat: 0
value: 69.171076
Number Constraints Used in Cover:374
GRASP Method!
Number cuts repeat: 0
value: 69.171076
Number Constraints Used in Cover:375
GRASP Method!
Number cuts repeat: 0
value: 69.171076
Number Constraints Used in Cover:375
GRASP Method!
Number cuts repeat: 0
value: 69.171076
Number Constraints Used in Cover:376
GRASP Method!
Number cuts repeat: 0
value: 69.171076
Number Constraints Used in Cover:376
GRASP Method!
Number cuts repeat: 0
value: 69.171076
Number Constraints Used in Cover:377
GRASP Method!
Number cuts repeat: 0
value: 69.171076
Number Constraints Used in Cover:377
GRASP Method!
Number cuts repeat: 0
value: 69.171076
Number Constraints Used in Cover:379
GRASP Method!
Number cuts repeat: 0
value: 69.171076
Number Constraints Used in Cover:382
GRASP Method!
Number cuts repeat: 0
value: 69.171076
Number Constraints Used in Cover:382
GRASP Method!
Number cuts repeat: 0
value: 69.171076
Number Constraints Used in Cover:382
GRASP Method!
Number cuts repeat: 0
value: 69.171076
Number Constraints Used in Cover:385
GRASP Method!
Number cuts repeat: 0
value: 69.171076
Number Constraints Used in Cover:385
GRASP Method!
Number cuts repeat: 0
value: 69.171076
Number Constraints Used in Cover:387
GRASP Method!
Number cuts repeat: 0
value: 69.171076
Number Constraints Used in Cover:387
GRASP Method!
Number cuts repeat: 0
value: 69.171076
Number Constraints Used in Cover:390
GRASP Method!
Number cuts repeat: 0
value: 69.171076
Number Constraints Used in Cover:391
GRASP Method!
Number cuts repeat: 0
value: 69.171076
Number Constraints Used in Cover:391
GRASP Method!
Number cuts repeat: 0
value: 69.171076
Number Constraints Used in Cover:394
GRASP Method!
Number cuts repeat: 0
value: 69.171076
Number Constraints Used in Cover:394
GRASP Method!
Number cuts repeat: 0
value: 69.171076
Number Constraints Used in Cover:394
GRASP Method!
Number cuts repeat: 0
value: 69.171076
Number Constraints Used in Cover:394
GRASP Method!
Number cuts repeat: 0
value: 69.171076
Number Constraints Used in Cover:395
GRASP Method!
Number cuts repeat: 0
value: 69.171076
Number Constraints Used in Cover:395
GRASP Method!
Number cuts repeat: 0
value: 69.171076
Number Constraints Used in Cover:396
GRASP Method!
Number cuts repeat: 0
value: 69.171076
Number Constraints Used in Cover:397
GRASP Method!
Number cuts repeat: 0
value: 69.171076
Number Constraints Used in Cover:399
GRASP Method!
Number cuts repeat: 0
value: 69.171076
Number Constraints Used in Cover:399
GRASP Method!
Number cuts repeat: 0
value: 69.171076
Number Constraints Used in Cover:400
GRASP Method!
Number cuts repeat: 0
value: 69.171076
Number Constraints Used in Cover:400
GRASP Method!
Number cuts repeat: 0
value: 69.171076
Number Constraints Used in Cover:400
GRASP Method!
Number cuts repeat: 0
value: 69.171076
Number Constraints Used in Cover:401
GRASP Method!
Number cuts repeat: 0
value: 69.171076
Number Constraints Used in Cover:405
GRASP Method!
Number cuts repeat: 0
value: 69.171076
Number Constraints Used in Cover:406
GRASP Method!
Number cuts repeat: 0
value: 69.171076
Number Constraints Used in Cover:406
GRASP Method!
Number cuts repeat: 0
value: 69.171076
Number Constraints Used in Cover:406
GRASP Method!
Number cuts repeat: 0
value: 69.171076
Number Constraints Used in Cover:406
GRASP Method!
Number cuts repeat: 0
value: 69.171076
Number Constraints Used in Cover:406
GRASP Method!
Number cuts repeat: 0
value: 69.171076
Number Constraints Used in Cover:406
GRASP Method!
Number cuts repeat: 0
value: 69.171076
Number Constraints Used in Cover:406
GRASP Method!
Number cuts repeat: 0
value: 69.171076
Number Constraints Used in Cover:408
GRASP Method!
Number cuts repeat: 0
value: 69.171076
Number Constraints Used in Cover:408
GRASP Method!
Number cuts repeat: 0
value: 69.171076
Number Constraints Used in Cover:408
GRASP Method!
Number cuts repeat: 0
value: 69.171076
Number Constraints Used in Cover:409
GRASP Method!
Number cuts repeat: 0
value: 69.171076
Number Constraints Used in Cover:412
GRASP Method!
Number cuts repeat: 0
value: 69.171076
Number Constraints Used in Cover:413
GRASP Method!
Number cuts repeat: 0
value: 69.171076
Number Constraints Used in Cover:413
GRASP Method!
Number cuts repeat: 0
value: 69.171076
Number Constraints Used in Cover:413
GRASP Method!
Number cuts repeat: 0
value: 69.171076
Number Constraints Used in Cover:413
GRASP Method!
Number cuts repeat: 0
value: 69.171076
Number Constraints Used in Cover:413
GRASP Method!
Number cuts repeat: 0
value: 69.171076
Number Constraints Used in Cover:415
GRASP Method!
Number cuts repeat: 0
value: 69.171076
Number Constraints Used in Cover:415
GRASP Method!
Number cuts repeat: 0
value: 69.171076
Number Constraints Used in Cover:417
GRASP Method!
Number cuts repeat: 0
value: 69.171076
Number Constraints Used in Cover:417
GRASP Method!
Number cuts repeat: 0
value: 69.171076
Number Constraints Used in Cover:417
GRASP Method!
Number cuts repeat: 0
value: 69.171076
Number Constraints Used in Cover:417
GRASP Method!
Number cuts repeat: 0
value: 69.171076
Number Constraints Used in Cover:417
GRASP Method!
Number cuts repeat: 0
value: 69.171076
Number Constraints Used in Cover:418
GRASP Method!
Number cuts repeat: 0
value: 69.171076
Number Constraints Used in Cover:418
GRASP Method!
Number cuts repeat: 0
value: 69.171076
Number Constraints Used in Cover:418
GRASP Method!
Number cuts repeat: 0
value: 69.171076
Number Constraints Used in Cover:418
GRASP Method!
Number cuts repeat: 0
value: 69.171076
Number Constraints Used in Cover:418
GRASP Method!
Number cuts repeat: 0
value: 69.171076
Number Constraints Used in Cover:419
GRASP Method!
Number cuts repeat: 0
value: 69.171076
Number Constraints Used in Cover:420
GRASP Method!
Number cuts repeat: 0
value: 69.171076
Number Constraints Used in Cover:422
GRASP Method!
Number cuts repeat: 0
value: 69.171076
Number Constraints Used in Cover:422
GRASP Method!
Number cuts repeat: 0
value: 69.171076
Number Constraints Used in Cover:422
GRASP Method!
Number cuts repeat: 0
value: 69.171076
Number Constraints Used in Cover:423
GRASP Method!
Number cuts repeat: 0
value: 69.171076
Number Constraints Used in Cover:423
GRASP Method!
Number cuts repeat: 0
value: 69.171076
Number Constraints Used in Cover:423
GRASP Method!
Number cuts repeat: 0
value: 69.171076
Number Constraints Used in Cover:423
GRASP Method!
Number cuts repeat: 0
value: 69.171076
Number Constraints Used in Cover:423
GRASP Method!
Number cuts repeat: 0
value: 69.171076
Number Constraints Used in Cover:424
GRASP Method!
Number cuts repeat: 0
value: 69.171076
Number Constraints Used in Cover:424
GRASP Method!
Number cuts repeat: 0
value: 69.171076
Number Constraints Used in Cover:425
GRASP Method!
Number cuts repeat: 0
value: 69.171076
Number Constraints Used in Cover:425
GRASP Method!
Number cuts repeat: 0
value: 69.171076
Number Constraints Used in Cover:426
GRASP Method!
Number cuts repeat: 0
value: 69.171076
Number Constraints Used in Cover:426
GRASP Method!
Number cuts repeat: 0
value: 69.171076
Number Constraints Used in Cover:428
GRASP Method!
Number cuts repeat: 0
value: 69.171076
Number Constraints Used in Cover:430
GRASP Method!
Number cuts repeat: 0
value: 69.171076
Number Constraints Used in Cover:430
GRASP Method!
Number cuts repeat: 0
value: 69.171076
Number Constraints Used in Cover:431
GRASP Method!
Number cuts repeat: 0
value: 69.171076
Number Constraints Used in Cover:432
GRASP Method!
Number cuts repeat: 0
value: 69.171076
Number Constraints Used in Cover:432
GRASP Method!
Number cuts repeat: 0
value: 69.171076
Number Constraints Used in Cover:432
GRASP Method!
Number cuts repeat: 0
value: 69.171076
Number Constraints Used in Cover:432
GRASP Method!
Number cuts repeat: 0
value: 69.171076
Number Constraints Used in Cover:433
GRASP Method!
Number cuts repeat: 0
value: 69.171076
Number Constraints Used in Cover:433
GRASP Method!
Number cuts repeat: 0
value: 69.171076
Number Constraints Used in Cover:434
GRASP Method!
Number cuts repeat: 0
value: 69.171076
Number Constraints Used in Cover:434
GRASP Method!
Number cuts repeat: 0
value: 69.171076
Number Constraints Used in Cover:435
GRASP Method!
Number cuts repeat: 0
value: 69.171076
Number Constraints Used in Cover:435
GRASP Method!
Number cuts repeat: 0
value: 69.171076
Number Constraints Used in Cover:435
GRASP Method!
Number cuts repeat: 0
value: 69.171076
Number Constraints Used in Cover:435
GRASP Method!
Number cuts repeat: 0
value: 69.171076
Number Constraints Used in Cover:435
GRASP Method!
Number cuts repeat: 0
value: 69.171076
Number Constraints Used in Cover:435
GRASP Method!
Number cuts repeat: 0
value: 69.171076
Number Constraints Used in Cover:435
GRASP Method!
Number cuts repeat: 0
value: 69.171076
Number Constraints Used in Cover:435
GRASP Method!
Number cuts repeat: 0
value: 69.171076
Number Constraints Used in Cover:435
GRASP Method!
Number cuts repeat: 0
value: 69.171076
Number Constraints Used in Cover:437
GRASP Method!
Number cuts repeat: 0
value: 69.171076
Number Constraints Used in Cover:437
GRASP Method!
Number cuts repeat: 0
value: 69.171076
Number Constraints Used in Cover:437
GRASP Method!
Number cuts repeat: 0
value: 69.171076
Number Constraints Used in Cover:437
GRASP Method!
Number cuts repeat: 0
value: 69.171076
Number Constraints Used in Cover:438
GRASP Method!
Number cuts repeat: 0
value: 69.171076
Number Constraints Used in Cover:439
GRASP Method!
Number cuts repeat: 0
value: 69.171076
Number Constraints Used in Cover:440
GRASP Method!
Number cuts repeat: 0
value: 69.171076
Number Constraints Used in Cover:441
GRASP Method!
Number cuts repeat: 0
value: 69.171076
Number Constraints Used in Cover:441
GRASP Method!
Number cuts repeat: 0
value: 69.171076
Number Constraints Used in Cover:441
GRASP Method!
Number cuts repeat: 0
value: 69.171076
Number Constraints Used in Cover:441
GRASP Method!
Number cuts repeat: 0
value: 69.171076
Number Constraints Used in Cover:441
GRASP Method!
Number cuts repeat: 0
value: 69.171076
Number Constraints Used in Cover:441
GRASP Method!
Number cuts repeat: 0
value: 69.171076
Number Constraints Used in Cover:441
GRASP Method!
Number cuts repeat: 0
value: 69.171076
Number Constraints Used in Cover:441
GRASP Method!
Number cuts repeat: 0
value: 69.171076
Number Constraints Used in Cover:441
GRASP Method!
Number cuts repeat: 0
value: 69.171076
Number Constraints Used in Cover:443
GRASP Method!
Number cuts repeat: 0
value: 69.171076
Number Constraints Used in Cover:443
GRASP Method!
Number cuts repeat: 0
value: 69.171076
Number Constraints Used in Cover:443
GRASP Method!
Number cuts repeat: 0
value: 69.171076
Number Constraints Used in Cover:443
GRASP Method!
Number cuts repeat: 0
value: 69.171076
Number Constraints Used in Cover:443
GRASP Method!
Number cuts repeat: 0
value: 69.171076
Number Constraints Used in Cover:443
GRASP Method!
Number cuts repeat: 0
value: 69.171076
Number Constraints Used in Cover:443
GRASP Method!
Number cuts repeat: 0
value: 69.171076
Number Constraints Used in Cover:443
GRASP Method!
Number cuts repeat: 0
value: 69.171076
Number Constraints Used in Cover:443
GRASP Method!
Number cuts repeat: 0
value: 69.171076
Number Constraints Used in Cover:443
GRASP Method!
Number cuts repeat: 0
value: 69.171076
Number Constraints Used in Cover:443
GRASP Method!
Number cuts repeat: 0
value: 69.171076
Number Constraints Used in Cover:443
GRASP Method!
Number cuts repeat: 0
value: 69.171076
Number Constraints Used in Cover:446
GRASP Method!
Number cuts repeat: 0
value: 69.171076
Number Constraints Used in Cover:446
GRASP Method!
Number cuts repeat: 0
value: 69.171076
Number Constraints Used in Cover:447
GRASP Method!
Number cuts repeat: 0
value: 69.171076
Number Constraints Used in Cover:447
GRASP Method!
Number cuts repeat: 0
value: 69.171076
Number Constraints Used in Cover:447
GRASP Method!
Number cuts repeat: 0
value: 69.171076
Number Constraints Used in Cover:447
GRASP Method!
Number cuts repeat: 0
value: 69.171076
Number Constraints Used in Cover:447
GRASP Method!
Number cuts repeat: 0
value: 69.171076
Number Constraints Used in Cover:447
GRASP Method!
Number cuts repeat: 0
value: 69.171076
Number Constraints Used in Cover:448
GRASP Method!
Number cuts repeat: 0
value: 69.171076
Number Constraints Used in Cover:448
GRASP Method!
Number cuts repeat: 0
value: 69.171076
Number Constraints Used in Cover:449
GRASP Method!
Number cuts repeat: 0
value: 69.171076
Number Constraints Used in Cover:449
GRASP Method!
Number cuts repeat: 0
value: 69.171076
Number Constraints Used in Cover:449
GRASP Method!
Number cuts repeat: 0
value: 69.171076
Number Constraints Used in Cover:449
GRASP Method!
Number cuts repeat: 0
value: 69.171076
Number Constraints Used in Cover:449
GRASP Method!
Number cuts repeat: 0
value: 69.171076
Number Constraints Used in Cover:450
GRASP Method!
Number cuts repeat: 0
value: 69.171076
Number Constraints Used in Cover:450
GRASP Method!
Number cuts repeat: 0
value: 69.171076
Number Constraints Used in Cover:450
GRASP Method!
Number cuts repeat: 0
value: 69.171076
Number Constraints Used in Cover:450
GRASP Method!
Number cuts repeat: 0
value: 69.171076
Number Constraints Used in Cover:450
GRASP Method!
Number cuts repeat: 0
value: 69.171076
Number Constraints Used in Cover:450
GRASP Method!
Number cuts repeat: 0
value: 69.171076
Number Constraints Used in Cover:451
GRASP Method!
Number cuts repeat: 0
value: 69.171076
Number Constraints Used in Cover:451
GRASP Method!
Number cuts repeat: 0
value: 69.171076
Number Constraints Used in Cover:452
GRASP Method!
Number cuts repeat: 0
value: 69.171076
Number Constraints Used in Cover:453
GRASP Method!
Number cuts repeat: 0
value: 69.171076
Number Constraints Used in Cover:453
GRASP Method!
Number cuts repeat: 0
value: 69.171076
Number Constraints Used in Cover:453
GRASP Method!
Number cuts repeat: 0
value: 69.171076
Number Constraints Used in Cover:454
GRASP Method!
Number cuts repeat: 0
value: 69.171076
Number Constraints Used in Cover:454
GRASP Method!
Number cuts repeat: 0
value: 69.171076
Number Constraints Used in Cover:454
GRASP Method!
Number cuts repeat: 0
value: 69.171076
Number Constraints Used in Cover:455
GRASP Method!
Number cuts repeat: 0
value: 69.171076
Number Constraints Used in Cover:455
GRASP Method!
Number cuts repeat: 0
value: 69.171076
Number Constraints Used in Cover:455
GRASP Method!
Number cuts repeat: 0
value: 69.171076
Number Cuts Final: 445
